# ---------------------------------------------------------------------
# SALT-FREE reference force field -- polymer part of the model only
# GENERATED by tools/write_ff.py --salt-free -- do not edit by hand
# ---------------------------------------------------------------------
variable tabfile index unused

bond_style      fene
bond_coeff      1 30.0 1.5 1.0 1.0
special_bonds   fene

pair_style      lj/cut 2.0
pair_coeff      * * 1.0 1.0 2.0
pair_modify     shift yes         # SI eq. (1)

group           monomers type 1
group           cations  type 2
group           anions   type 3
group           ions     type 2 3

neighbor        0.4 bin
neigh_modify    delay 0 every 1 check yes
